50 592
1 4
1 6
1 7
1 8
1 10
1 12
1 13
1 14
1 15
1 16
1 19
1 20
1 21
1 24
1 25
1 27
1 28
1 29
1 31
1 32
1 34
1 37
1 39
1 41
1 42
1 44
1 45
1 47
1 49
2 8
2 9
2 10
2 12
2 14
2 15
2 16
2 19
2 20
2 21
2 22
2 24
2 25
2 30
2 38
2 43
2 46
2 49
2 50
3 4
3 5
3 7
3 8
3 11
3 13
3 14
3 16
3 18
3 19
3 21
3 22
3 23
3 28
3 29
3 30
3 33
3 34
3 35
3 39
3 40
3 42
3 43
3 47
3 49
4 6
4 7
4 8
4 9
4 11
4 13
4 14
4 15
4 17
4 20
4 21
4 25
4 27
4 30
4 31
4 32
4 35
4 36
4 38
4 39
4 41
4 42
4 43
4 47
4 49
4 50
5 8
5 10
5 11
5 12
5 13
5 18
5 19
5 20
5 21
5 23
5 24
5 25
5 26
5 27
5 28
5 31
5 33
5 36
5 37
5 38
5 40
5 41
5 43
5 44
5 46
5 47
5 48
5 49
5 50
6 8
6 9
6 10
6 12
6 14
6 17
6 22
6 23
6 25
6 26
6 29
6 31
6 32
6 35
6 36
6 38
6 39
6 41
6 42
6 44
6 45
6 48
7 8
7 12
7 13
7 14
7 15
7 17
7 18
7 21
7 22
7 24
7 27
7 29
7 30
7 31
7 32
7 33
7 35
7 39
7 42
7 45
7 47
8 9
8 14
8 22
8 26
8 28
8 29
8 31
8 34
8 38
8 40
8 45
8 48
8 50
9 10
9 12
9 17
9 18
9 19
9 20
9 23
9 27
9 29
9 30
9 31
9 33
9 36
9 37
9 38
9 41
9 42
9 47
9 49
9 50
10 12
10 13
10 15
10 16
10 18
10 21
10 22
10 24
10 26
10 34
10 36
10 39
10 43
10 44
10 45
10 46
10 49
10 50
11 13
11 17
11 19
11 21
11 30
11 35
11 38
11 39
11 40
11 42
11 43
11 45
11 47
11 49
11 50
12 13
12 15
12 17
12 19
12 21
12 23
12 27
12 29
12 32
12 34
12 35
12 36
12 38
12 42
12 43
12 48
12 50
13 15
13 17
13 21
13 25
13 26
13 28
13 29
13 31
13 35
13 37
13 40
13 42
13 45
13 47
13 49
13 50
14 17
14 19
14 20
14 21
14 22
14 24
14 26
14 28
14 31
14 32
14 34
14 36
14 37
14 38
14 39
14 40
14 42
14 43
14 44
14 48
14 49
14 50
15 17
15 18
15 21
15 23
15 24
15 30
15 31
15 32
15 33
15 34
15 36
15 37
15 43
15 44
15 49
15 50
16 17
16 19
16 20
16 22
16 26
16 27
16 29
16 30
16 34
16 36
16 37
16 38
16 40
16 46
16 49
16 50
17 18
17 19
17 21
17 22
17 28
17 29
17 30
17 33
17 34
17 37
17 38
17 39
17 40
17 41
17 45
17 46
17 48
17 50
18 19
18 20
18 27
18 29
18 30
18 32
18 34
18 35
18 40
18 41
18 42
18 43
18 44
18 46
18 47
18 49
18 50
19 24
19 27
19 30
19 32
19 33
19 34
19 35
19 36
19 40
19 42
19 46
19 49
19 50
20 23
20 24
20 25
20 26
20 31
20 35
20 36
20 38
20 39
20 41
20 42
20 43
20 44
20 46
20 49
21 24
21 25
21 26
21 29
21 31
21 35
21 42
21 46
21 47
21 49
21 50
22 23
22 25
22 26
22 30
22 32
22 33
22 35
22 39
22 43
22 45
22 47
22 48
23 24
23 26
23 28
23 36
23 39
23 41
23 44
23 46
23 47
23 48
23 49
23 50
24 29
24 31
24 32
24 34
24 36
24 37
24 40
24 44
24 45
24 46
24 48
24 49
25 26
25 30
25 34
25 35
25 36
25 37
25 38
25 39
25 41
25 42
25 45
25 46
25 49
25 50
26 27
26 28
26 30
26 33
26 41
26 42
26 43
26 44
26 45
26 48
27 29
27 30
27 31
27 32
27 33
27 35
27 43
27 45
27 47
27 49
27 50
28 38
28 40
28 41
28 42
28 43
28 47
29 31
29 32
29 35
29 41
29 42
29 44
29 47
29 49
30 31
30 32
30 34
30 35
30 36
30 40
30 41
30 42
30 44
30 45
31 34
31 35
31 36
31 39
31 40
31 41
31 43
31 44
31 45
31 46
31 48
31 49
31 50
32 34
32 36
32 37
32 38
32 39
32 41
32 43
32 44
32 45
32 47
33 36
33 37
33 40
33 44
33 45
33 47
33 50
34 38
34 44
34 45
34 48
34 50
35 36
35 37
35 38
35 39
35 40
35 41
35 42
35 43
35 44
35 46
35 49
36 38
36 44
36 45
36 47
36 48
36 49
37 38
37 45
37 46
37 48
37 49
38 40
38 43
38 44
38 45
38 46
38 49
38 50
39 41
39 45
39 48
39 50
40 41
40 45
40 46
40 48
40 50
41 42
41 44
41 48
41 50
42 43
42 44
42 45
42 47
42 48
42 50
43 44
43 45
43 46
44 45
44 47
44 49
45 46
45 47
45 49
45 50
46 49
46 50
47 48
47 49
48 49
48 50
